NAME : Euclidean Random Tour : n = 100, sample = 6 
COMMENT : Coordinates are generated uniformly sampled from [0, 100000] x [0, 100000] 
DIMENSION : 100 
EDGE_WEIGHT_TYPE : EUC_2D 
TOUR_SECTION 
1
31
32
58
18
22
19
77
70
16
36
68
5
57
88
27
35
61
38
93
48
20
43
83
59
13
53
67
12
63
40
26
15
34
39
9
92
14
28
87
11
94
97
44
79
64
50
33
56
54
60
6
51
99
73
71
24
84
17
86
100
85
81
65
78
25
90
52
66
21
42
96
7
76
3
4
23
75
91
72
37
95
29
8
55
89
47
45
82
80
69
46
2
41
62
74
30
10
98
49
-1
